NURSE = { A, B, C, D, E, F, G, H, I, J, K, L, M, N, O, P };

nday = 14;

rostered_off = array2d(NURSE, 1..nday, [ false | n in NURSE, d in 1..nday ]);
                
maxweek = 6;
maxnightfort = 6;
minfort = 6; 
minshift =  [| 1, 3, 1, 1, 2, 2, 1, 1, 2, 1, 1, 2, 2, 1 
             | 2, 2, 6, 2, 4, 3, 6, 2, 6, 2, 2, 4, 3, 2
             | 1, 5, 3, 2, 1, 2, 1, 3, 1, 1, 2, 1, 2, 1
             | 2, 2, 2, 2, 6, 2, 2, 4, 2, 2, 5, 4, 4, 2
             | 0, 0, 0, 0, 0, 0, 0, 0, 0, 0, 0, 0, 0, 0
             |];               

shift_cost = [ 1, 1, 1, 1, 2, 2, 2, 3, 3, 3, 3, 3, 4, 4, 10, 10 ];

WARD = { GEN, EME, HRT, CAN, '  .' };
dummy = '  .';
minward =   [| 2, 1, 2, 1, 0, 0, 2, 2, 1, 2, 1, 0, 0, 2
             | 2, 2, 2, 2, 4, 4, 2, 2, 2, 2, 2, 2, 4, 4
             | 1, 1, 0, 1, 1, 0, 1, 1, 0, 1, 1, 0, 1, 1
             | 1, 1, 1, 1, 1, 2, 1, 1, 1, 1, 1, 2, 1, 1
             | 0, 0, 0, 0, 0, 0, 0, 0, 0, 0, 0, 0, 0, 0
             |];
maxward = 3;    

SKILL = { SENIOR,  EMERG, CARDIO, RADIO };  
senior = SENIOR;
skill = [ {}, {}, {}, {}, {}, {}, {EMERG}, {EMERG}, {CARDIO}, {RADIO}, {SENIOR}, {SENIOR}, {EMERG,CARDIO}, {EMERG,RADIO},
          {EMERG, SENIOR}, {CARDIO, SENIOR} ]; 
required = [ {}, { EMERG }, { CARDIO }, {RADIO}, {} ];    

emergency = EME;                    
